226 
1
226 
1 1 1 1 1 1 1 1 1 1 1 1 1 1 1 1 1 1 1 1 1 1 1 1 1 1 1 1 1 1 1 1 1 1 1 1 1 1 1 1 1 1 1 1 1 1 1 1 1 1 1 1 1 1 1 1 1 1 1 1 1 1 1 1 1 1 1 1 1 1 1 1 1 1 1 1 1 1 1 1 1 1 1 1 1 1 1 1 1 1 1 1 1 1 1 1 1 1 1 1 1 1 1 1 1 1 1 1 1 1 1 1 1 1 1 1 1 1 1 1 1 1 1 1 1 1 1 1 1 1 1 1 1 1 1 1 1 1 1 1 1 1 1 1 1 1 1 1 1 1 1 1 1 1 1 1 1 1 1 1 1 1 1 1 1 1 1 1 1 1 1 1 1 1 1 1 1 1 1 1 1 1 1 1 1 1 1 1 1 1 1 1 1 1 1 1 1 1 1 1 1 1 1 1 1 1 1 1 1 1 1 1 1 1 1 1 1 1 1 1 1 1 1 1 1 1 
1 1 1 1 1
2 1 2 2 1
3 1 3 3 1
4 1 4 4 1
5 1 5 5 1
6 1 6 6 1
7 1 7 7 1
8 1 8 8 1
9 1 9 9 1
10 1 10 10 1
11 1 11 11 1
12 1 12 12 1
13 1 13 13 1
14 1 14 14 1
15 1 15 15 1
16 1 16 16 1
17 1 17 17 1
18 1 18 18 1
19 1 19 19 1
20 1 20 20 1
21 1 21 21 1
22 1 22 22 1
23 1 23 23 1
24 1 24 24 1
25 1 25 25 1
26 1 26 26 1
27 1 27 27 1
28 1 28 28 1
29 1 29 29 1
30 1 30 30 1
31 1 31 31 1
32 1 32 32 1
33 1 33 33 1
34 1 34 34 1
35 1 35 35 1
36 1 36 36 1
37 1 37 37 1
38 1 38 38 1
39 1 39 39 1
40 1 40 40 1
41 1 41 41 1
42 1 42 42 1
43 1 43 43 1
44 1 44 44 1
45 1 45 45 1
46 1 46 46 1
47 1 47 47 1
48 1 48 48 1
49 1 49 49 1
50 1 50 50 1
51 1 51 51 1
52 1 52 52 1
53 1 53 53 1
54 1 54 54 1
55 1 55 55 1
56 1 56 56 1
57 1 57 57 1
58 1 58 58 1
59 1 59 59 1
60 1 60 60 1
61 1 61 61 1
62 1 62 62 1
63 1 63 63 1
64 1 64 64 1
65 1 65 65 1
66 1 66 66 1
67 1 67 67 1
68 1 68 68 1
69 1 69 69 1
70 1 70 70 1
71 1 71 71 1
72 1 72 72 1
73 1 73 73 1
74 1 74 74 1
75 1 75 75 1
76 1 76 76 1
77 1 77 77 1
78 1 78 78 1
79 1 79 79 1
80 1 80 80 1
81 1 81 81 1
82 1 82 82 1
83 1 83 83 1
84 1 84 84 1
85 1 85 85 1
86 1 86 86 1
87 1 87 87 1
88 1 88 88 1
89 1 89 89 1
90 1 90 90 1
91 1 91 91 1
92 1 92 92 1
93 1 93 93 1
94 1 94 94 1
95 1 95 95 1
96 1 96 96 1
97 1 97 97 1
98 1 98 98 1
99 1 99 99 1
100 1 100 100 1
101 1 101 101 1
102 1 102 102 1
103 1 103 103 1
104 1 104 104 1
105 1 105 105 1
106 1 106 106 1
107 1 107 107 1
108 1 108 108 1
109 1 109 109 1
110 1 110 110 1
111 1 111 111 1
112 1 112 112 1
113 1 113 113 1
114 1 114 114 1
115 1 115 115 1
116 1 116 116 1
117 1 117 117 1
118 1 118 118 1
119 1 119 119 1
120 1 120 120 1
121 1 121 121 1
122 1 122 122 1
123 1 123 123 1
124 1 124 124 1
125 1 125 125 1
126 1 126 126 1
127 1 127 127 1
128 1 128 128 1
129 1 129 129 1
130 1 130 130 1
131 1 131 131 1
132 1 132 132 1
133 1 133 133 1
134 1 134 134 1
135 1 135 135 1
136 1 136 136 1
137 1 137 137 1
138 1 138 138 1
139 1 139 139 1
140 1 140 140 1
141 1 141 141 1
142 1 142 142 1
143 1 143 143 1
144 1 144 144 1
145 1 145 145 1
146 1 146 146 1
147 1 147 147 1
148 1 148 148 1
149 1 149 149 1
150 1 150 150 1
151 1 151 151 1
152 1 152 152 1
153 1 153 153 1
154 1 154 154 1
155 1 155 155 1
156 1 156 156 1
157 1 157 157 1
158 1 158 158 1
159 1 159 159 1
160 1 160 160 1
161 1 161 161 1
162 1 162 162 1
163 1 163 163 1
164 1 164 164 1
165 1 165 165 1
166 1 166 166 1
167 1 167 167 1
168 1 168 168 1
169 1 169 169 1
170 1 170 170 1
171 1 171 171 1
172 1 172 172 1
173 1 173 173 1
174 1 174 174 1
175 1 175 175 1
176 1 176 176 1
177 1 177 177 1
178 1 178 178 1
179 1 179 179 1
180 1 180 180 1
181 1 181 181 1
182 1 182 182 1
183 1 183 183 1
184 1 184 184 1
185 1 185 185 1
186 1 186 186 1
187 1 187 187 1
188 1 188 188 1
189 1 189 189 1
190 1 190 190 1
191 1 191 191 1
192 1 192 192 1
193 1 193 193 1
194 1 194 194 1
195 1 195 195 1
196 1 196 196 1
197 1 197 197 1
198 1 198 198 1
199 1 199 199 1
200 1 200 200 1
201 1 201 201 1
202 1 202 202 1
203 1 203 203 1
204 1 204 204 1
205 1 205 205 1
206 1 206 206 1
207 1 207 207 1
208 1 208 208 1
209 1 209 209 1
210 1 210 210 1
211 1 211 211 1
212 1 212 212 1
213 1 213 213 1
214 1 214 214 1
215 1 215 215 1
216 1 216 216 1
217 1 217 217 1
218 1 218 218 1
219 1 219 219 1
220 1 220 220 1
221 1 221 221 1
222 1 222 222 1
223 1 223 223 1
224 1 224 224 1
225 1 225 225 1
226 1 226 226 1
0 1 1 2 0.980583
0 1 1 3 0.980583
0 1 1 4 0.980583
0 1 1 5 0.961165
0 1 1 6 0.961165
0 1 1 7 0.980583
0 1 1 8 1.000000
0 1 1 9 1.000000
0 1 1 10 1.000000
0 1 1 11 1.000000
0 1 1 12 1.000000
0 1 1 13 1.000000
0 1 1 14 1.000000
0 1 1 15 1.000000
0 1 1 16 1.000000
0 1 1 17 1.000000
0 1 1 18 1.000000
0 1 1 19 1.000000
0 1 1 20 1.000000
0 1 1 21 1.000000
0 1 1 22 1.000000
0 1 1 23 1.000000
0 1 1 24 1.000000
0 1 1 25 1.000000
0 1 1 26 1.000000
0 1 1 27 1.000000
0 1 1 28 1.000000
0 1 1 29 1.000000
0 1 1 30 1.000000
0 1 1 31 1.000000
0 1 1 32 1.000000
0 1 1 33 1.000000
0 1 1 34 1.000000
0 1 1 35 1.000000
0 1 1 36 1.000000
0 1 1 37 1.000000
0 1 1 38 0.980583
0 1 1 39 0.980583
0 1 1 40 0.980583
0 1 1 41 0.961165
0 1 1 42 0.961165
0 1 1 43 0.980583
0 1 1 44 0.980583
0 1 1 45 0.980583
0 1 1 46 0.961165
0 1 1 47 1.000000
0 1 1 48 1.000000
0 1 1 49 1.000000
0 1 1 50 1.000000
0 1 1 51 0.961165
0 1 1 52 0.883495
0 1 1 53 0.786408
0 1 1 54 0.728155
0 1 1 55 0.728155
0 1 1 56 0.728155
0 1 1 57 0.728155
0 1 1 58 0.786408
0 1 1 59 0.805825
0 1 1 60 0.747573
0 1 1 61 0.708738
0 1 1 62 1.000000
0 1 1 63 1.000000
0 1 1 64 1.000000
0 1 1 65 0.980583
0 1 1 66 0.883495
0 1 1 67 0.631068
0 1 1 68 0.300971
0 1 1 69 0.106796
0 1 1 70 0.106796
0 1 1 71 0.106796
0 1 1 72 0.126214
0 1 1 73 0.242718
0 1 1 74 0.300971
0 1 1 75 0.184466
0 1 1 76 0.048544
0 1 1 77 0.980583
0 1 1 78 1.000000
0 1 1 79 1.000000
0 1 1 80 0.961165
0 1 1 81 0.805825
0 1 1 82 0.398058
0 1 1 83 -0.242718
0 1 1 84 -0.669903
0 1 1 85 -0.650485
0 1 1 86 -0.572816
0 1 1 87 -0.592233
0 1 1 88 -0.514563
0 1 1 89 -0.378641
0 1 1 90 -0.417476
0 1 1 91 -0.572816
0 1 1 92 0.961165
0 1 1 93 1.000000
0 1 1 94 1.000000
0 1 1 95 0.980583
0 1 1 96 0.844660
0 1 1 97 0.398058
0 1 1 98 -0.398058
0 1 1 99 -1.000000
0 1 1 100 -0.902913
0 1 1 101 -0.669903
0 1 1 102 -0.825243
0 1 1 103 -0.961165
0 1 1 104 -0.728155
0 1 1 105 -0.456311
0 1 1 106 -0.495146
0 1 1 107 0.941748
0 1 1 108 1.000000
0 1 1 109 1.000000
0 1 1 110 1.000000
0 1 1 111 0.902913
0 1 1 112 0.514563
0 1 1 113 -0.300971
0 1 1 114 -0.902913
0 1 1 115 -0.669903
0 1 1 116 -0.300971
0 1 1 117 -0.592233
0 1 1 118 -0.941748
0 1 1 119 -0.611650
0 1 1 120 -0.029126
0 1 1 121 0.029126
0 1 1 122 0.941748
0 1 1 123 1.000000
0 1 1 124 1.000000
0 1 1 125 1.000000
0 1 1 126 0.922330
0 1 1 127 0.572816
0 1 1 128 -0.203883
0 1 1 129 -0.747573
0 1 1 130 -0.417476
0 1 1 131 -0.009709
0 1 1 132 -0.378641
0 1 1 133 -0.786408
0 1 1 134 -0.359223
0 1 1 135 0.320388
0 1 1 136 0.359223
0 1 1 137 0.902913
0 1 1 138 1.000000
0 1 1 139 1.000000
0 1 1 140 1.000000
0 1 1 141 0.902913
0 1 1 142 0.514563
0 1 1 143 -0.262136
0 1 1 144 -0.766990
0 1 1 145 -0.378641
0 1 1 146 0.009709
0 1 1 147 -0.378641
0 1 1 148 -0.766990
0 1 1 149 -0.300971
0 1 1 150 0.398058
0 1 1 151 0.398058
0 1 1 152 0.844660
0 1 1 153 0.980583
0 1 1 154 1.000000
0 1 1 155 0.980583
0 1 1 156 0.844660
0 1 1 157 0.398058
0 1 1 158 -0.398058
0 1 1 159 -0.864078
0 1 1 160 -0.533981
0 1 1 161 -0.184466
0 1 1 162 -0.514563
0 1 1 163 -0.844660
0 1 1 164 -0.398058
0 1 1 165 0.262136
0 1 1 166 0.262136
0 1 1 167 0.825243
0 1 1 168 0.980583
0 1 1 169 1.000000
0 1 1 170 0.961165
0 1 1 171 0.805825
0 1 1 172 0.378641
0 1 1 173 -0.281553
0 1 1 174 -0.650485
0 1 1 175 -0.398058
0 1 1 176 -0.165049
0 1 1 177 -0.398058
0 1 1 178 -0.611650
0 1 1 179 -0.242718
0 1 1 180 0.262136
0 1 1 181 0.262136
0 1 1 182 0.883495
0 1 1 183 0.980583
0 1 1 184 1.000000
0 1 1 185 0.980583
0 1 1 186 0.883495
0 1 1 187 0.631068
0 1 1 188 0.262136
0 1 1 189 0.067961
0 1 1 190 0.184466
0 1 1 191 0.300971
0 1 1 192 0.184466
0 1 1 193 0.087379
0 1 1 194 0.281553
0 1 1 195 0.553398
0 1 1 196 0.533981
0 1 1 197 0.961165
0 1 1 198 1.000000
0 1 1 199 1.000000
0 1 1 200 1.000000
0 1 1 201 0.961165
0 1 1 202 0.883495
0 1 1 203 0.766990
0 1 1 204 0.708738
0 1 1 205 0.747573
0 1 1 206 0.786408
0 1 1 207 0.747573
0 1 1 208 0.728155
0 1 1 209 0.786408
0 1 1 210 0.864078
0 1 1 211 0.864078
0 1 1 212 1.000000
0 1 1 213 1.000000
0 1 1 214 1.000000
0 1 1 215 1.000000
0 1 1 216 1.000000
0 1 1 217 1.000000
0 1 1 218 0.980583
0 1 1 219 0.961165
0 1 1 220 0.980583
0 1 1 221 0.980583
0 1 1 222 0.980583
0 1 1 223 0.961165
0 1 1 224 0.980583
0 1 1 225 0.980583
0 1 1 226 0.980583
